(set-logic QF_UF)
(declare-fun A0 () Bool)
(declare-fun A1 () Bool)
(declare-fun A2 () Bool)
(declare-fun A3 () Bool)
(declare-fun A4 () Bool)
(declare-fun A5 () Bool)
(declare-fun A6 () Bool)
(declare-fun A7 () Bool)
(declare-fun A8 () Bool)
(declare-fun A9 () Bool)
(declare-fun A10 () Bool)
(declare-fun A11 () Bool)
(declare-fun A12 () Bool)
(declare-fun A13 () Bool)
(declare-fun A14 () Bool)
(declare-fun A15 () Bool)
(declare-fun A16 () Bool)
(declare-fun A17 () Bool)
(declare-fun A18 () Bool)
(declare-fun A19 () Bool)
(declare-fun A20 () Bool)
(declare-fun A21 () Bool)
(declare-fun A22 () Bool)
(declare-fun A23 () Bool)
(declare-fun A24 () Bool)
(assert (let ((.def_0 (not A17))) (let ((.def_1 (= .def_0 A2))) (let ((.def_2 (not A8))) (let ((.def_3 (not A23))) (let ((.def_4 (or .def_3 .def_2))) (let ((.def_5 (not .def_4))) (let ((.def_6 (= .def_5 .def_1))) (let ((.def_7 (not .def_6))) (let ((.def_8 (not A21))) (let ((.def_9 (or A16 .def_8))) (let ((.def_10 (not .def_9))) (let ((.def_11 (and A4 A1))) (let ((.def_12 (or .def_11 .def_10))) (let ((.def_13 (not .def_12))) (let ((.def_14 (and .def_13 .def_7))) (let ((.def_15 (not .def_14))) (let ((.def_16 (or A5 A11))) (let ((.def_17 (not .def_16))) (let ((.def_18 (or A21 A0))) (let ((.def_19 (not .def_18))) (let ((.def_20 (or .def_19 .def_17))) (let ((.def_21 (not .def_20))) (let ((.def_22 (not A11))) (let ((.def_23 (not A19))) (let ((.def_24 (and .def_23 .def_22))) (let ((.def_25 (or A10 .def_22))) (let ((.def_26 (not .def_25))) (let ((.def_27 (and .def_26 .def_24))) (let ((.def_28 (and .def_27 .def_21))) (let ((.def_29 (and .def_28 .def_15))) (let ((.def_30 (and A10 A17))) (let ((.def_31 (not A9))) (let ((.def_32 (= .def_0 .def_31))) (let ((.def_33 (not .def_32))) (let ((.def_34 (and .def_33 .def_30))) (let ((.def_35 (or A3 A15))) (let ((.def_36 (not .def_35))) (let ((.def_37 (and A19 A12))) (let ((.def_38 (and .def_37 .def_36))) (let ((.def_39 (not .def_38))) (let ((.def_40 (and .def_39 .def_34))) (let ((.def_41 (not .def_40))) (let ((.def_42 (not A2))) (let ((.def_43 (or A10 .def_42))) (let ((.def_44 (and A8 A4))) (let ((.def_45 (not .def_44))) (let ((.def_46 (or .def_45 .def_43))) (let ((.def_47 (not .def_46))) (let ((.def_48 (= A14 .def_23))) (let ((.def_49 (not .def_48))) (let ((.def_50 (not A22))) (let ((.def_51 (or A20 .def_50))) (let ((.def_52 (not .def_51))) (let ((.def_53 (or .def_52 .def_49))) (let ((.def_54 (not .def_53))) (let ((.def_55 (and .def_54 .def_47))) (let ((.def_56 (not .def_55))) (let ((.def_57 (or .def_56 .def_41))) (let ((.def_58 (not .def_57))) (let ((.def_59 (and .def_58 .def_29))) (let ((.def_60 (not .def_59))) (let ((.def_61 (and A2 A8))) (let ((.def_62 (not .def_61))) (let ((.def_63 (not A10))) (let ((.def_64 (and A5 .def_63))) (let ((.def_65 (not .def_64))) (let ((.def_66 (and .def_65 .def_62))) (let ((.def_67 (not .def_66))) (let ((.def_68 (not A13))) (let ((.def_69 (or .def_68 A16))) (let ((.def_70 (not .def_69))) (let ((.def_71 (not A20))) (let ((.def_72 (not A7))) (let ((.def_73 (or .def_72 .def_71))) (let ((.def_74 (not .def_73))) (let ((.def_75 (and .def_74 .def_70))) (let ((.def_76 (not .def_75))) (let ((.def_77 (or .def_76 .def_67))) (let ((.def_78 (and A9 A21))) (let ((.def_79 (not A15))) (let ((.def_80 (or A3 .def_79))) (let ((.def_81 (or .def_80 .def_78))) (let ((.def_82 (and A23 A4))) (let ((.def_83 (not A1))) (let ((.def_84 (and .def_71 .def_83))) (let ((.def_85 (not .def_84))) (let ((.def_86 (or .def_85 .def_82))) (let ((.def_87 (and .def_86 .def_81))) (let ((.def_88 (not .def_87))) (let ((.def_89 (= .def_88 .def_77))) (let ((.def_90 (not .def_89))) (let ((.def_91 (and .def_79 .def_63))) (let ((.def_92 (not .def_91))) (let ((.def_93 (not A14))) (let ((.def_94 (or .def_72 .def_93))) (let ((.def_95 (not .def_94))) (let ((.def_96 (or .def_95 .def_92))) (let ((.def_97 (not .def_96))) (let ((.def_98 (not A6))) (let ((.def_99 (and .def_98 A20))) (let ((.def_100 (= A7 A1))) (let ((.def_101 (and .def_100 .def_99))) (let ((.def_102 (not .def_101))) (let ((.def_103 (or .def_102 .def_97))) (let ((.def_104 (and .def_50 .def_2))) (let ((.def_105 (not A16))) (let ((.def_106 (or A15 .def_105))) (let ((.def_107 (not .def_106))) (let ((.def_108 (or .def_107 .def_104))) (let ((.def_109 (not .def_108))) (let ((.def_110 (not A12))) (let ((.def_111 (and .def_110 A3))) (let ((.def_112 (and .def_72 .def_8))) (let ((.def_113 (not .def_112))) (let ((.def_114 (and .def_113 .def_111))) (let ((.def_115 (not .def_114))) (let ((.def_116 (and .def_115 .def_109))) (let ((.def_117 (and .def_116 .def_103))) (let ((.def_118 (or .def_117 .def_90))) (let ((.def_119 (and .def_118 .def_60))) (let ((.def_120 (not .def_119))) (let ((.def_121 (or .def_23 A12))) (let ((.def_122 (and A3 A1))) (let ((.def_123 (not .def_122))) (let ((.def_124 (= .def_123 .def_121))) (let ((.def_125 (not .def_124))) (let ((.def_126 (and .def_22 .def_72))) (let ((.def_127 (not .def_126))) (let ((.def_128 (not A5))) (let ((.def_129 (= A19 .def_128))) (let ((.def_130 (or .def_129 .def_127))) (let ((.def_131 (and .def_130 .def_125))) (let ((.def_132 (= .def_93 A16))) (let ((.def_133 (and .def_2 .def_98))) (let ((.def_134 (not .def_133))) (let ((.def_135 (and .def_134 .def_132))) (let ((.def_136 (not .def_135))) (let ((.def_137 (not A3))) (let ((.def_138 (or .def_137 A19))) (let ((.def_139 (or A2 .def_110))) (let ((.def_140 (= .def_139 .def_138))) (let ((.def_141 (not .def_140))) (let ((.def_142 (and .def_141 .def_136))) (let ((.def_143 (not .def_142))) (let ((.def_144 (or .def_143 .def_131))) (let ((.def_145 (not .def_144))) (let ((.def_146 (and .def_42 A9))) (let ((.def_147 (not .def_146))) (let ((.def_148 (or .def_0 A3))) (let ((.def_149 (not .def_148))) (let ((.def_150 (and .def_149 .def_147))) (let ((.def_151 (not .def_150))) (let ((.def_152 (and A4 A21))) (let ((.def_153 (not .def_152))) (let ((.def_154 (and .def_31 .def_8))) (let ((.def_155 (or .def_154 .def_153))) (let ((.def_156 (and .def_155 .def_151))) (let ((.def_157 (not .def_156))) (let ((.def_158 (or A10 A1))) (let ((.def_159 (or .def_3 A5))) (let ((.def_160 (not .def_159))) (let ((.def_161 (and .def_160 .def_158))) (let ((.def_162 (not .def_161))) (let ((.def_163 (not A0))) (let ((.def_164 (= A19 .def_163))) (let ((.def_165 (and A8 A0))) (let ((.def_166 (not .def_165))) (let ((.def_167 (or .def_166 .def_164))) (let ((.def_168 (or .def_167 .def_162))) (let ((.def_169 (not .def_168))) (let ((.def_170 (or .def_169 .def_157))) (let ((.def_171 (or .def_170 .def_145))) (let ((.def_172 (not .def_171))) (let ((.def_173 (or .def_23 .def_50))) (let ((.def_174 (or A12 A18))) (let ((.def_175 (= .def_174 .def_173))) (let ((.def_176 (not .def_175))) (let ((.def_177 (or .def_83 .def_72))) (let ((.def_178 (not .def_177))) (let ((.def_179 (or A12 A6))) (let ((.def_180 (not .def_179))) (let ((.def_181 (and .def_180 .def_178))) (let ((.def_182 (and .def_181 .def_176))) (let ((.def_183 (not .def_182))) (let ((.def_184 (or .def_83 A19))) (let ((.def_185 (and .def_137 A13))) (let ((.def_186 (not .def_185))) (let ((.def_187 (or .def_186 .def_184))) (let ((.def_188 (or .def_3 .def_105))) (let ((.def_189 (not .def_188))) (let ((.def_190 (not A18))) (let ((.def_191 (or .def_190 A9))) (let ((.def_192 (= .def_191 .def_189))) (let ((.def_193 (not .def_192))) (let ((.def_194 (or .def_193 .def_187))) (let ((.def_195 (not .def_194))) (let ((.def_196 (and .def_195 .def_183))) (let ((.def_197 (not .def_196))) (let ((.def_198 (and A15 .def_98))) (let ((.def_199 (not .def_198))) (let ((.def_200 (and .def_137 .def_0))) (let ((.def_201 (= .def_200 .def_199))) (let ((.def_202 (not A4))) (let ((.def_203 (and .def_202 A17))) (let ((.def_204 (not .def_203))) (let ((.def_205 (or A20 A12))) (let ((.def_206 (and .def_205 .def_204))) (let ((.def_207 (and .def_206 .def_201))) (let ((.def_208 (or A18 .def_190))) (let ((.def_209 (or .def_8 A24))) (let ((.def_210 (not .def_209))) (let ((.def_211 (or .def_210 .def_208))) (let ((.def_212 (and .def_98 .def_79))) (let ((.def_213 (and .def_50 .def_72))) (let ((.def_214 (= .def_213 .def_212))) (let ((.def_215 (and .def_214 .def_211))) (let ((.def_216 (or .def_215 .def_207))) (let ((.def_217 (= .def_216 .def_197))) (let ((.def_218 (not .def_217))) (let ((.def_219 (or .def_218 .def_172))) (let ((.def_220 (not .def_219))) (let ((.def_221 (and .def_220 .def_120))) (let ((.def_222 (and .def_110 .def_72))) (let ((.def_223 (not .def_222))) (let ((.def_224 (or .def_63 A5))) (let ((.def_225 (not .def_224))) (let ((.def_226 (or .def_225 .def_223))) (let ((.def_227 (or A8 A8))) (let ((.def_228 (and .def_71 A23))) (let ((.def_229 (and .def_228 .def_227))) (let ((.def_230 (not .def_229))) (let ((.def_231 (or .def_230 .def_226))) (let ((.def_232 (= .def_163 .def_71))) (let ((.def_233 (not .def_232))) (let ((.def_234 (= .def_128 .def_72))) (let ((.def_235 (or .def_234 .def_233))) (let ((.def_236 (and A1 .def_128))) (let ((.def_237 (and A2 A17))) (let ((.def_238 (not .def_237))) (let ((.def_239 (= .def_238 .def_236))) (let ((.def_240 (not .def_239))) (let ((.def_241 (and .def_240 .def_235))) (let ((.def_242 (not .def_241))) (let ((.def_243 (or .def_242 .def_231))) (let ((.def_244 (or A10 .def_31))) (let ((.def_245 (and A17 .def_72))) (let ((.def_246 (not .def_245))) (let ((.def_247 (and .def_246 .def_244))) (let ((.def_248 (not A24))) (let ((.def_249 (= .def_248 A7))) (let ((.def_250 (or .def_95 .def_249))) (let ((.def_251 (= .def_250 .def_247))) (let ((.def_252 (not .def_251))) (let ((.def_253 (and A16 .def_23))) (let ((.def_254 (and A11 A18))) (let ((.def_255 (or .def_254 .def_253))) (let ((.def_256 (not .def_255))) (let ((.def_257 (= A19 A5))) (let ((.def_258 (and .def_23 .def_79))) (let ((.def_259 (and .def_258 .def_257))) (let ((.def_260 (not .def_259))) (let ((.def_261 (or .def_260 .def_256))) (let ((.def_262 (not .def_261))) (let ((.def_263 (and .def_262 .def_252))) (let ((.def_264 (or .def_263 .def_243))) (let ((.def_265 (and .def_63 .def_3))) (let ((.def_266 (not .def_265))) (let ((.def_267 (or A2 .def_63))) (let ((.def_268 (not .def_267))) (let ((.def_269 (and .def_268 .def_266))) (let ((.def_270 (not .def_269))) (let ((.def_271 (or A0 A13))) (let ((.def_272 (not .def_271))) (let ((.def_273 (or A0 .def_248))) (let ((.def_274 (and .def_273 .def_272))) (let ((.def_275 (= .def_274 .def_270))) (let ((.def_276 (and .def_68 A5))) (let ((.def_277 (and .def_31 A20))) (let ((.def_278 (and .def_277 .def_276))) (let ((.def_279 (not .def_278))) (let ((.def_280 (= .def_248 .def_0))) (let ((.def_281 (and .def_71 .def_79))) (let ((.def_282 (not .def_281))) (let ((.def_283 (or .def_282 .def_280))) (let ((.def_284 (not .def_283))) (let ((.def_285 (= .def_284 .def_279))) (let ((.def_286 (= .def_285 .def_275))) (let ((.def_287 (not .def_286))) (let ((.def_288 (and A22 A5))) (let ((.def_289 (not .def_288))) (let ((.def_290 (or .def_163 .def_79))) (let ((.def_291 (not .def_290))) (let ((.def_292 (and .def_291 .def_289))) (let ((.def_293 (and A21 A21))) (let ((.def_294 (or A2 .def_42))) (let ((.def_295 (or .def_294 .def_293))) (let ((.def_296 (and .def_295 .def_292))) (let ((.def_297 (not .def_296))) (let ((.def_298 (and A10 .def_163))) (let ((.def_299 (or A10 .def_128))) (let ((.def_300 (not .def_299))) (let ((.def_301 (and .def_300 .def_298))) (let ((.def_302 (or A1 A9))) (let ((.def_303 (not .def_302))) (let ((.def_304 (= .def_93 .def_50))) (let ((.def_305 (not .def_304))) (let ((.def_306 (and .def_305 .def_303))) (let ((.def_307 (or .def_306 .def_301))) (let ((.def_308 (and .def_307 .def_297))) (let ((.def_309 (or .def_308 .def_287))) (let ((.def_310 (not .def_309))) (let ((.def_311 (or .def_310 .def_264))) (let ((.def_312 (and A5 .def_68))) (let ((.def_313 (not .def_312))) (let ((.def_314 (or A21 A7))) (let ((.def_315 (or .def_314 .def_313))) (let ((.def_316 (and A1 .def_72))) (let ((.def_317 (not .def_316))) (let ((.def_318 (and A18 A0))) (let ((.def_319 (not .def_318))) (let ((.def_320 (or .def_319 .def_317))) (let ((.def_321 (not .def_320))) (let ((.def_322 (and .def_321 .def_315))) (let ((.def_323 (or .def_8 .def_202))) (let ((.def_324 (or A1 .def_23))) (let ((.def_325 (not .def_324))) (let ((.def_326 (or .def_325 .def_323))) (let ((.def_327 (not .def_326))) (let ((.def_328 (and .def_72 .def_3))) (let ((.def_329 (not .def_328))) (let ((.def_330 (and .def_3 .def_98))) (let ((.def_331 (not .def_330))) (let ((.def_332 (or .def_331 .def_329))) (let ((.def_333 (not .def_332))) (let ((.def_334 (or .def_333 .def_327))) (let ((.def_335 (or .def_334 .def_322))) (let ((.def_336 (= A1 .def_190))) (let ((.def_337 (or A3 .def_93))) (let ((.def_338 (not .def_337))) (let ((.def_339 (or .def_338 .def_336))) (let ((.def_340 (not .def_339))) (let ((.def_341 (= A2 A15))) (let ((.def_342 (not .def_341))) (let ((.def_343 (or A22 A19))) (let ((.def_344 (= .def_343 .def_342))) (let ((.def_345 (and .def_344 .def_340))) (let ((.def_346 (not .def_345))) (let ((.def_347 (or .def_22 .def_202))) (let ((.def_348 (not .def_347))) (let ((.def_349 (or .def_23 A3))) (let ((.def_350 (or .def_349 .def_348))) (let ((.def_351 (not .def_350))) (let ((.def_352 (or .def_68 A14))) (let ((.def_353 (and A22 .def_0))) (let ((.def_354 (= .def_353 .def_352))) (let ((.def_355 (not .def_354))) (let ((.def_356 (or .def_355 .def_351))) (let ((.def_357 (or .def_356 .def_346))) (let ((.def_358 (and .def_357 .def_335))) (let ((.def_359 (not .def_358))) (let ((.def_360 (or .def_71 .def_23))) (let ((.def_361 (not .def_360))) (let ((.def_362 (or A10 .def_93))) (let ((.def_363 (not .def_362))) (let ((.def_364 (and .def_363 .def_361))) (let ((.def_365 (and A0 .def_93))) (let ((.def_366 (or A10 A24))) (let ((.def_367 (or .def_366 .def_365))) (let ((.def_368 (and .def_367 .def_364))) (let ((.def_369 (not .def_368))) (let ((.def_370 (or A7 A3))) (let ((.def_371 (not .def_370))) (let ((.def_372 (or .def_110 A3))) (let ((.def_373 (not .def_372))) (let ((.def_374 (or .def_373 .def_371))) (let ((.def_375 (= A14 .def_93))) (let ((.def_376 (not .def_375))) (let ((.def_377 (= A16 .def_98))) (let ((.def_378 (and .def_377 .def_376))) (let ((.def_379 (or .def_378 .def_374))) (let ((.def_380 (not .def_379))) (let ((.def_381 (and .def_380 .def_369))) (let ((.def_382 (= A7 A7))) (let ((.def_383 (= A19 A2))) (let ((.def_384 (or .def_383 .def_382))) (let ((.def_385 (not .def_384))) (let ((.def_386 (= A12 A24))) (let ((.def_387 (not .def_386))) (let ((.def_388 (or .def_202 A16))) (let ((.def_389 (not .def_388))) (let ((.def_390 (and .def_389 .def_387))) (let ((.def_391 (not .def_390))) (let ((.def_392 (and .def_391 .def_385))) (let ((.def_393 (= .def_42 .def_79))) (let ((.def_394 (not .def_393))) (let ((.def_395 (or .def_42 A23))) (let ((.def_396 (not .def_395))) (let ((.def_397 (= .def_396 .def_394))) (let ((.def_398 (not .def_397))) (let ((.def_399 (and A9 .def_71))) (let ((.def_400 (or A2 .def_163))) (let ((.def_401 (and .def_400 .def_399))) (let ((.def_402 (or .def_401 .def_398))) (let ((.def_403 (not .def_402))) (let ((.def_404 (and .def_403 .def_392))) (let ((.def_405 (not .def_404))) (let ((.def_406 (or .def_405 .def_381))) (let ((.def_407 (not .def_406))) (let ((.def_408 (or .def_407 .def_359))) (let ((.def_409 (and .def_408 .def_311))) (let ((.def_410 (not .def_409))) (let ((.def_411 (or .def_410 .def_221))) (let ((.def_412 (not .def_411))) .def_412))))))))))))))))))))))))))))))))))))))))))))))))))))))))))))))))))))))))))))))))))))))))))))))))))))))))))))))))))))))))))))))))))))))))))))))))))))))))))))))))))))))))))))))))))))))))))))))))))))))))))))))))))))))))))))))))))))))))))))))))))))))))))))))))))))))))))))))))))))))))))))))))))))))))))))))))))))))))))))))))))))))))))))))))))))))))))))))))))))))))))))))))))))))))))))))))))))))))))))))))))))))))))))))
(check-sat)
